(set-logic HORN)
(set-info :source |
    Benchmark: C_VC
    Output by Princess (http://www.philipp.ruemmer.org/princess.shtml)
|)
(set-info :status unknown)
(declare-fun inv_main3 (Int Int) Bool)
(declare-fun inv_main4 (Int Int) Bool)
(declare-fun inv_main5 (Int Int) Bool)
(assert (forall ((var0 Int)) (inv_main3 var0 0 ) ) )
(assert (forall ((var0 Int)) (forall ((var1 Int)) (or (not (inv_main3 var0 var1 ) ) (inv_main5 1 var1 ) ) ) ) )
(assert (forall ((var0 Int)) (forall ((var1 Int)) (or (not (and (inv_main5 var0 var1 ) (not (<= 0 (+ 8 (* (- 1) var0 ) ) ) ) ) ) (inv_main4 var0 var1 ) ) ) ) )
(assert (forall ((var0 Int)) (forall ((var1 Int)) (or (not (and (inv_main5 var0 var1 ) (and (<= 0 (+ (+ 4 (* (- 1) var0 ) ) (- 1) ) ) (<= 0 (+ 8 (* (- 1) var0 ) ) ) ) ) ) (inv_main5 (+ var0 1 ) (+ var1 2 ) ) ) ) ) )
(assert (forall ((var0 Int)) (forall ((var1 Int)) (or (not (and (inv_main5 var0 var1 ) (and (not (<= 0 (+ (+ 4 (* (- 1) var0 ) ) (- 1) ) ) ) (<= 0 (+ 8 (* (- 1) var0 ) ) ) ) ) ) (inv_main5 (+ var0 1 ) var1 ) ) ) ) )
(assert (forall ((var0 Int)) (forall ((var1 Int)) (not (and (inv_main4 var0 var1 ) (and (not (= var1 16 ) ) (not (= var1 0 ) ) ) ) ) ) ) )
(check-sat)
